20
3
20244
460 466 398
true
0.25
30 10 46 4 8 14 30 14 49 49 27 18 5 7 6 49 49 43 22 13
1 10 43 44 4 43 16 45 26 13 48 11 17 40 17 13 9 25 42 26
6 3 46 27 42 31 16 18 25 3 35 43 35 39 12 13 31 29 28 24
-85 -38 -15 25 -31 -83 -41 43 -14 -27 70 7 -38 -12 -57 75 95 18 -96 97
0 0 56 0 0 0 -5 0 0 0 0 0 -12 0 57 0 0 0 0 0
0 55 55 0 0 0 0 0 -16 0 0 0 0 0 0 0 0 0 0
0 0 0 0 0 0 0 65 -37 -6 0 91 0 8 0 13 0 0
0 18 0 -28 67 -84 0 0 0 0 0 -37 0 0 49 0 -99
0 -90 0 0 0 0 0 0 0 4 0 0 0 0 0 44
0 0 0 0 0 -8 0 0 0 0 0 0 -54 0 0
0 64 59 0 0 0 0 34 0 0 0 0 0 0
0 0 0 0 0 0 0 0 0 0 0 0 0
0 -33 0 -11 0 0 16 0 32 0 0 0
0 0 60 0 0 0 0 0 0 0 0
0 -70 0 0 0 0 0 23 0 0
0 0 0 13 0 41 0 0 0
0 0 0 -34 0 0 0 0
0 0 36 0 60 -89 0
0 3 0 -36 51 0
0 -42 0 0 0
0 0 0 0
0 -55 0
0 0
0 63 -28 0 35 0 0 0 0 14 0 0 0 0 0 -100 0 0 0
0 0 0 0 50 0 0 0 0 0 1 -62 0 50 0 0 67 -35
0 -62 0 0 0 -5 0 0 0 0 98 0 0 0 0 -15 0
0 -31 0 0 55 0 0 -6 0 0 95 0 0 0 0 0
0 0 0 -1 0 0 -41 10 0 46 65 0 0 0 0
0 0 0 0 43 67 0 0 0 0 0 -10 74 0
0 0 0 0 0 0 -56 0 26 71 0 0 0
0 0 0 0 0 0 0 -19 0 0 0 0
0 56 0 25 0 -83 65 0 0 0 0
0 0 0 0 0 0 -78 0 0 0
0 0 0 -54 18 0 0 0 48
0 63 0 90 0 0 0 0
0 0 0 -25 0 0 0
0 0 0 72 0 0
0 0 0 0 91
0 0 -22 16
0 3 -22
0 25
0
0 0 0 0 15 0 0 0 0 31 0 74 0 0 -35 84 0 0
0 0 0 88 0 0 0 0 0 0 0 0 0 -85 -81 0 41
0 0 -1 0 76 -34 0 0 0 0 0 0 0 -11 0 0
0 0 0 0 0 0 -86 0 0 7 -4 0 0 -40 0
0 0 0 0 0 0 0 66 0 9 0 0 0 0
0 0 0 0 0 0 0 71 0 0 -44 0 0
0 -9 0 0 0 0 51 0 0 0 0 -64
0 0 0 0 24 3 0 0 0 0 -74
0 -32 91 0 0 0 0 -77 42 0
0 89 0 17 0 0 0 0 0
0 0 0 0 0 43 0 0
0 0 89 0 -68 13 0
0 0 0 0 0 0
0 0 95 0 0
0 2 -41 -10
0 0 0
0 0
0
0 0 0 0 0 0 0 0 0 -26 0 0 0 0 0 0 -13
0 0 0 0 0 0 0 0 0 0 99 32 0 0 0 0
0 0 0 0 0 34 0 0 0 -84 0 0 0 0 0
0 0 -47 0 0 0 0 0 0 -99 0 0 0 0
0 0 0 0 0 0 0 0 0 0 0 0 0
0 0 0 88 0 0 68 -63 0 0 0 0
0 4 -67 0 0 0 0 0 0 -33 0
0 90 84 0 0 0 80 0 0 0
0 0 0 0 0 0 0 0 0
0 0 0 82 0 0 0 67
0 0 0 -100 0 0 0
0 0 0 0 0 -99
0 -73 0 65 0
0 37 -66 0
0 0 0
0 0
0
0 0 0 -31 0 0 75 0 0 0 0 -95 0 99 -38 0
0 50 -68 0 74 0 1 42 71 0 -90 0 -26 0 0
0 0 0 -10 0 0 0 0 0 42 0 0 5 0
0 -96 0 0 -29 0 0 0 0 -84 0 -93 0
0 0 0 0 0 0 0 -60 0 0 -37 0
0 0 53 0 0 0 -24 0 29 0 0
0 -94 0 0 -40 71 0 0 -6 -85
0 0 0 93 0 0 0 0 7
0 0 88 0 0 0 56 0
0 0 0 -69 0 0 0
0 0 0 -89 0 0
0 0 0 0 0
0 0 0 0
0 -27 0
0 57
0
0 0 0 0 25 -34 -95 0 0 0 70 0 0 0 0
0 -2 0 0 0 0 0 0 0 0 0 0 -65 0
0 0 0 0 0 0 0 80 0 0 0 0 0
0 0 96 0 20 0 0 0 0 25 0 -83
0 0 0 0 0 0 0 0 0 0 0
0 -93 0 0 0 0 0 0 0 45
0 0 0 0 0 0 0 0 44
0 -47 0 98 0 38 0 0
0 -54 81 0 0 -52 0
0 0 0 0 0 -1
0 0 0 51 0
0 0 0 0
0 0 81
0 0
0
0 0 0 -11 0 0 0 0 0 0 0 0 0 0
0 0 0 95 0 56 0 0 0 29 -82 0 0
0 0 -9 -57 0 -27 0 0 0 0 0 0
0 -72 72 0 83 0 0 0 0 0 0
0 0 0 0 0 0 0 -23 0 0
0 0 -28 0 0 78 0 0 0
0 0 0 0 0 0 0 0
0 0 0 0 0 -21 0
0 0 0 0 0 0
0 0 0 14 0
0 0 0 0
0 -62 0
0 0
0
0 -64 -52 0 -40 0 0 0 0 0 0 0 0
0 0 -90 0 0 0 0 0 0 0 0 -68
0 0 0 0 -38 83 0 -44 97 0 0
0 0 0 -48 0 0 0 51 14 0
0 0 0 0 70 0 0 0 0
0 0 0 0 -4 40 58 10
0 0 0 24 0 0 94
0 0 0 0 3 0
0 85 0 0 -7
0 0 0 0
0 80 0
0 12
0
0 0 0 0 0 0 0 -41 0 0 0 0
0 0 0 -43 0 0 0 0 0 0 24
0 0 0 0 -1 0 -31 90 0 76
0 0 0 0 0 0 -99 0 0
0 0 0 0 0 0 0 0
0 0 0 0 -71 -47 -77
0 0 0 97 0 0
0 -9 0 0 0
0 -100 0 0
0 -13 0
0 0
0
0 0 0 0 13 0 0 0 0 0 0
0 0 0 54 0 -55 0 0 0 90
0 0 59 0 0 0 0 0 0
0 5 59 83 -45 -4 -3 -25
0 0 0 0 0 0 0
0 0 0 0 0 0
0 0 0 -88 0
0 61 16 0
0 -92 0
0 0
0
0 0 0 54 -41 -38 0 0 0 -15
0 0 0 0 0 0 0 0 0
0 0 -99 0 0 0 0 0
0 0 0 0 0 0 0
0 0 0 0 -39 0
0 0 0 -60 0
0 0 0 0
0 0 0
0 0
0
0 0 -94 -63 0 -29 7 0 0
0 0 60 0 0 -65 0 -80
0 0 0 0 -11 0 32
0 -91 0 0 73 0
0 64 0 7 0
0 -6 52 0
0 0 0
0 -33
0
0 0 0 0 -22 0 0 0
0 0 86 0 87 0 0
0 0 0 0 0 0
0 0 0 0 0
0 0 73 0
0 0 64
0 66
0
0 0 0 82 0 0 0
0 0 63 0 0 0
0 -5 -8 0 0
0 0 0 0
0 47 0
0 0
0
0 29 5 0 0 0
0 0 0 -46 0
0 82 0 0
0 0 0
0 0
0
0 0 -46 -7 0
0 56 0 0
0 -46 -66
0 -63
0
0 0 0 0
0 80 0
0 0
0
0 10 0
0 0
0
0 0
0
0
758 365 593 -400 395 -270 613 -384 -268 -53 188 313 990 451 262 726 29 326 -281 112
303.2 64.8888888888889 13.191102123356927 -41.30190796857463 52.50992063492063 -11.424820490836995 32.35277777777778 -19.098412698412698 -8.83236002093145 -7.608407465550322 5.417019400352733 17.707501370292068 94.84033613445378 29.08922466422467 26.970588235294116 42.169544740973315 1.583180942627947 10.620924886394013 -9.832972582972582 5.863247863247864
